num_vertices=25;
num_edges=320;
adj_matrix=[|0,1,1,1,1,1,1,0,0,0,1,0,1,0,0,1,0,0,1,0,1,0,0,0,1
|1,0,1,1,1,1,1,1,0,0,0,1,0,1,0,0,1,0,0,1,0,1,0,0,0
|1,1,0,1,1,0,1,1,1,0,1,0,1,0,1,0,0,1,0,0,0,0,1,0,0
|1,1,1,0,1,0,0,1,1,1,0,1,0,1,0,1,0,0,1,0,0,0,0,1,0
|1,1,1,1,0,0,0,0,1,1,0,0,1,0,1,0,1,0,0,1,1,0,0,0,1
|1,1,0,0,0,0,1,1,1,1,1,1,0,0,0,1,0,1,0,0,1,0,0,1,0
|1,1,1,0,0,1,0,1,1,1,1,1,1,0,0,0,1,0,1,0,0,1,0,0,1
|0,1,1,1,0,1,1,0,1,1,0,1,1,1,0,1,0,1,0,1,0,0,1,0,0
|0,0,1,1,1,1,1,1,0,1,0,0,1,1,1,0,1,0,1,0,1,0,0,1,0
|0,0,0,1,1,1,1,1,1,0,0,0,0,1,1,0,0,1,0,1,0,1,0,0,1
|1,0,1,0,0,1,1,0,0,0,0,1,1,1,1,1,1,0,0,0,1,0,1,0,0
|0,1,0,1,0,1,1,1,0,0,1,0,1,1,1,1,1,1,0,0,0,1,0,1,0
|1,0,1,0,1,0,1,1,1,0,1,1,0,1,1,0,1,1,1,0,1,0,1,0,1
|0,1,0,1,0,0,0,1,1,1,1,1,1,0,1,0,0,1,1,1,0,1,0,1,0
|0,0,1,0,1,0,0,0,1,1,1,1,1,1,0,0,0,0,1,1,0,0,1,0,1
|1,0,0,1,0,1,0,1,0,0,1,1,0,0,0,0,1,1,1,1,1,1,0,0,0
|0,1,0,0,1,0,1,0,1,0,1,1,1,0,0,1,0,1,1,1,1,1,1,0,0
|0,0,1,0,0,1,0,1,0,1,0,1,1,1,0,1,1,0,1,1,0,1,1,1,0
|1,0,0,1,0,0,1,0,1,0,0,0,1,1,1,1,1,1,0,1,0,0,1,1,1
|0,1,0,0,1,0,0,1,0,1,0,0,0,1,1,1,1,1,1,0,0,0,0,1,1
|1,0,0,0,1,1,0,0,1,0,1,0,1,0,0,1,1,0,0,0,0,1,1,1,1
|0,1,0,0,0,0,1,0,0,1,0,1,0,1,0,1,1,1,0,0,1,0,1,1,1
|0,0,1,0,0,0,0,1,0,0,1,0,1,0,1,0,1,1,1,0,1,1,0,1,1
|0,0,0,1,0,1,0,0,1,0,0,1,0,1,0,0,0,1,1,1,1,1,1,0,1
|1,0,0,0,1,0,1,0,0,1,0,0,1,0,1,0,0,0,1,1,1,1,1,1,0
|];
